Route 1: 92 65 83 64 59 23 21 18 19 52 2 6 7 8 46 5 4 3 1 35 37 70 100

Route 2: 82 12 14 47 16 15 73 11 86 88 79 9 53 78 10 97 74 13 17 60

Route 3: 39 36 72 31 29 27 33 63 62 30 28 26 34 50 51 49 22 75 57 24 20 56 66 32 89 48 25 77 58

Route 4: 98 45 42 44 40 38 41 61 81 43 54 68 55

Route 5: 69 71 67 85 76 84 95 94 93 96 91 80

Route 6: 90 99 87

Vehicles: 6

Distance: 1706.31

